Gurobi Optimizer version 9.1.2 build v9.1.2rc0 (linux64)
Thread count: 36 physical cores, 72 logical processors, using up to 32 threads
Optimize a model with 12 rows, 57 columns and 590 nonzeros
Model fingerprint: 0xf32eec78
Model has 47 quadratic constraints
Coefficient statistics:
  Matrix range     [2e-05, 3e+00]
  QMatrix range    [1e+00, 1e+00]
  QLMatrix range   [1e+00, 1e+00]
  Objective range  [8e-03, 7e-01]
  Bounds range     [1e+00, 1e+00]
  RHS range        [1e+00, 1e+00]
Presolve removed 9 rows and 0 columns

Continuous model is non-convex -- solving as a MIP.

Presolve removed 9 rows and 0 columns
Presolve time: 0.00s
Presolved: 189 rows, 57 columns, 443 nonzeros
Presolved model has 47 bilinear constraint(s)
Variable types: 57 continuous, 0 integer (0 binary)

Root relaxation: objective -1.743721e+00, 44 iterations, 0.00 seconds

    Nodes    |    Current Node    |     Objective Bounds      |     Work
 Expl Unexpl |  Obj  Depth IntInf | Incumbent    BestBd   Gap | It/Node Time

     0     0   -1.74372    0   38          -   -1.74372      -     -    0s
H    0     0                       0.6147548   -1.74372   384%     -    0s
     0     0   -1.64739    0    1    0.61475   -1.64739   368%     -    0s
H    0     0                      -1.6450460   -1.64739  0.14%     -    0s
     0     0     cutoff    0        -1.64505   -1.64505  0.00%     -    0s

Cutting planes:
  RLT: 25
  BQP: 3

Explored 1 nodes (76 simplex iterations) in 0.01 seconds
Thread count was 32 (of 72 available processors)

Solution count 2: -1.64505 0.614755 
No other solutions better than -1.64505

Optimal solution found (tolerance 1.00e-04)
Best objective -1.645045978473e+00, best bound -1.645045978473e+00, gap 0.0000%

User-callback calls 78, time in user-callback 0.00 sec
Gurobi Optimizer version 9.1.2 build v9.1.2rc0 (linux64)
Thread count: 36 physical cores, 72 logical processors, using up to 32 threads
Optimize a model with 24 rows, 125 columns and 2580 nonzeros
Model fingerprint: 0x388a77e4
Model has 105 quadratic constraints
Coefficient statistics:
  Matrix range     [4e-06, 5e+01]
  QMatrix range    [1e+00, 1e+00]
  QLMatrix range   [1e+00, 1e+00]
  Objective range  [2e-02, 2e+00]
  Bounds range     [1e+00, 1e+00]
  RHS range        [1e+00, 1e+00]
Presolve removed 11 rows and 0 columns

Continuous model is non-convex -- solving as a MIP.

Presolve removed 11 rows and 0 columns
Presolve time: 0.00s
Presolved: 428 rows, 125 columns, 2018 nonzeros
Presolved model has 105 bilinear constraint(s)
Variable types: 125 continuous, 0 integer (0 binary)

Root relaxation: objective -8.476453e+00, 133 iterations, 0.00 seconds

    Nodes    |    Current Node    |     Objective Bounds      |     Work
 Expl Unexpl |  Obj  Depth IntInf | Incumbent    BestBd   Gap | It/Node Time

     0     0   -8.47645    0   67          -   -8.47645      -     -    0s
H    0     0                      -0.2758844   -8.47645  2972%     -    0s
     0     0   -6.43320    0   95   -0.27588   -6.43320  2232%     -    0s
H    0     0                      -1.3647534   -6.43320   371%     -    0s
     0     0   -6.36407    0   95   -1.36475   -6.36407   366%     -    0s
     0     0   -6.09465    0   53   -1.36475   -6.09465   347%     -    0s
H    0     0                      -2.7393792   -6.09465   122%     -    0s
     0     0   -6.09086    0   53   -2.73938   -6.09086   122%     -    0s
     0     0   -6.05489    0   53   -2.73938   -6.05489   121%     -    0s
     0     0   -6.03433    0   53   -2.73938   -6.03433   120%     -    0s
     0     0   -6.01419    0   53   -2.73938   -6.01419   120%     -    0s
H    0     0                      -2.9582901   -6.01419   103%     -    0s
     0     0   -6.00837    0   66   -2.95829   -6.00837   103%     -    0s
     0     0   -6.00177    0   53   -2.95829   -6.00177   103%     -    0s
     0     0   -5.99866    0   53   -2.95829   -5.99866   103%     -    0s
     0     0   -5.99863    0   59   -2.95829   -5.99863   103%     -    0s
     0     0   -5.99863    0   59   -2.95829   -5.99863   103%     -    0s
H    0     0                      -4.6071296   -5.99863  30.2%     -    0s
H    0     0                      -4.6744985   -5.99863  28.3%     -    0s
H    0     0                      -4.7175077   -5.99863  27.2%     -    0s
H    0     0                      -4.7234693   -5.99863  27.0%     -    0s
H    0     0                      -4.7437259   -5.99863  26.5%     -    0s
     0     2   -5.99863    0   59   -4.74373   -5.99863  26.5%     -    0s
*  481   420              20      -4.7438782   -5.32830  12.3%  24.0    0s
*  501   420              20      -4.7461105   -5.32830  12.3%  23.4    0s
*  502   420              20      -4.7462390   -5.32830  12.3%  23.4    0s
*  603   520              19      -4.7464283   -5.32830  12.3%  20.9    0s
*  619   520              22      -4.8309356   -5.32830  10.3%  20.7    0s
*  736   572              28      -4.8401154   -5.25457  8.56%  18.5    0s
*  783   572              21      -4.9406735   -5.25457  6.35%  17.9    0s
*  872   688              29      -5.0213515   -5.22476  4.05%  17.0    0s
*  889   688              20      -5.0919357   -5.22476  2.61%  16.9    0s
* 1125   634              19      -5.0927405   -5.22476  2.59%  15.5    0s
* 1157   634              23      -5.1416424   -5.22476  1.62%  15.3    0s
* 1282   473              16      -5.1436094   -5.22476  1.58%  14.2    0s
* 1315   473              18      -5.1442385   -5.22476  1.57%  14.0    0s
* 1316   473              18      -5.1442399   -5.22476  1.57%  14.0    0s
* 1428   473              20      -5.1442747   -5.22476  1.56%  13.2    0s
* 1639   151              19      -5.1442839   -5.14435  0.00%  11.9    0s

Cutting planes:
  RLT: 55
  BQP: 8
  PSD: 48

Explored 1855 nodes (19839 simplex iterations) in 0.55 seconds
Thread count was 32 (of 72 available processors)

Solution count 10: -5.14428 -5.14427 -5.14424 ... -4.94067

Optimal solution found (tolerance 1.00e-04)
Best objective -5.144283871355e+00, best bound -5.144346221710e+00, gap 0.0012%

User-callback calls 3988, time in user-callback 0.00 sec



objective value: -5.144283871355003
objective bound: -5.144346221710335
x_opt: [1.0, 0.0, 1.0, 0.0, 0.1994725594333492, 0.0, 1.0, 1.0, 0.45273919713183486, 0.0, 0.0, 0.0, 0.7970107536433475, 0.0, 0.45527290754665095, 0.3202800503280271, 0.0, 0.0, 0.0, 0.0]
GUROBI solution time: 0.5505118370056152




